%chk=C:\Users\Gaming\PycharmProjects\computationalChemistryProj1\inputFiles\ff.chk
# wb97xd/dgdzvp2/auto sparse geom=connectivity

Title Card Required

0 3
 C                 -1.42857143    0.45112781    0.00000000
 H                 -1.07191700   -0.55768219    0.00000000
 H                 -1.07189859    0.95552600    0.87365150
 H                 -1.07189859    0.95552600   -0.87365150
 H                 -2.49857143    0.45114100    0.00000000
 C                  3.36466165    1.76691727    0.00000000
 H                  3.72131607    0.75810726    0.00000000
 H                  3.72133449    2.27131546    0.87365150
 H                  3.72133449    2.27131546   -0.87365150
 H                  2.29466165    1.76693045    0.00000000

 1 2 1.0 3 1.0 4 1.0 5 1.0
 2
 3
 4
 5
 6 7 1.0 8 1.0 9 1.0 10 1.0
 7
 8
 9
 10

