%chk=C:\Users\Gaming\PycharmProjects\computationalChemistryProj1\inputFiles\Test7.chk
# wb97xd/aug-cc-pvtz geom=connectivity

Title7

0 3
 H                  3.50000000    0.00000000    0.00000000
 H                  3.96525969    1.54403357    0.00000000

 1
 2

