%chk=C:\Users\Gaming\PycharmProjects\computationalChemistryProj1\test48920\test_00003\dd.chk
# hf/3-21g geom=connectivity

Title Card Required

0 1
 N                 -1.42473123    0.32258064    0.00000000
 H                 -1.09140934   -0.62023245    0.00000000
 H                 -1.09139213    0.79398082    0.81649673
 H                 -1.09139213    0.79398082   -0.81649673
 N                  3.09139796    1.68458779    0.00000000
 H                  3.42471985    0.74177470    0.00000000
 H                  3.42473706    2.15598797    0.81649673
 H                  3.42473706    2.15598797   -0.81649673

 1 2 1.0 3 1.0 4 1.0
 2
 3
 4
 5 6 1.0 7 1.0 8 1.0
 6
 7
 8

